(declare-rel Invariant (Bool Bool))
(declare-rel Goal())
(declare-var A Bool)
(declare-var B Bool)
(declare-var C Bool)
(declare-var D Bool)
(rule (=> (not (or A B)) (Invariant A B)))
(rule (=> ( and
  (Invariant C D)
  (=> (and (not C ) D) B)
  (=> (and (not C) (not D)) (not A))
  (=> C A)
  (=> C (not B))
  (=> (not D) (not B))
) 
  (Invariant A B)))
(rule (=> (and (Invariant A B) A (not B)) Goal))
(query Goal)